(set-info :smt-lib-version 2.6)
(set-logic QF_UFLRA)
(set-info :source |
MathSat group

|)
(set-info :category "random")
(set-info :status sat)
(declare-fun x0 () Real)
(declare-fun x1 () Real)
(declare-fun x2 () Real)
(declare-fun x3 () Real)
(declare-fun x4 () Real)
(declare-fun x5 () Real)
(declare-fun x6 () Real)
(declare-fun x7 () Real)
(declare-fun x8 () Real)
(declare-fun x9 () Real)
(declare-fun x10 () Real)
(declare-fun x11 () Real)
(declare-fun x12 () Real)
(declare-fun x13 () Real)
(declare-fun x14 () Real)
(declare-fun x15 () Real)
(declare-fun x16 () Real)
(declare-fun x17 () Real)
(declare-fun x18 () Real)
(declare-fun x19 () Real)
(declare-fun x20 () Real)
(declare-fun x21 () Real)
(declare-fun x22 () Real)
(declare-fun x23 () Real)
(declare-fun x24 () Real)
(declare-fun x25 () Real)
(declare-fun x26 () Real)
(declare-fun x27 () Real)
(declare-fun x28 () Real)
(declare-fun x29 () Real)
(declare-fun f0_1 (Real) Real)
(declare-fun f0_2 (Real Real) Real)
(declare-fun f0_3 (Real Real Real) Real)
(declare-fun f0_4 (Real Real Real Real) Real)
(declare-fun P0 () Bool)
(declare-fun P1 () Bool)
(declare-fun P2 () Bool)
(declare-fun P3 () Bool)
(declare-fun P4 () Bool)
(declare-fun P5 () Bool)
(declare-fun P6 () Bool)
(declare-fun P7 () Bool)
(declare-fun P8 () Bool)
(declare-fun P9 () Bool)
(declare-fun P10 () Bool)
(declare-fun P11 () Bool)
(declare-fun P12 () Bool)
(declare-fun P13 () Bool)
(declare-fun P14 () Bool)
(declare-fun P15 () Bool)
(declare-fun P16 () Bool)
(declare-fun P17 () Bool)
(declare-fun P18 () Bool)
(declare-fun P19 () Bool)
(declare-fun P20 () Bool)
(declare-fun P21 () Bool)
(declare-fun P22 () Bool)
(declare-fun P23 () Bool)
(declare-fun P24 () Bool)
(declare-fun P25 () Bool)
(declare-fun P26 () Bool)
(declare-fun P27 () Bool)
(declare-fun P28 () Bool)
(declare-fun P29 () Bool)
(assert (let ((?v_14 (* 25 x14)) (?v_105 (<= (- (+ (* 24 x1) (* 22 x10)) (* 29 x8)) 42)) (?v_141 (<= (+ (- (* 8 x3) (* 13 x3)) (* 14 x9)) 33)) (?v_34 (* 40 x25)) (?v_9 (distinct (f0_2 x12 x0) (f0_2 x28 x9))) (?v_72 (distinct x2 x28)) (?v_0 (= (f0_1 x11) x20)) (?v_40 (= x2 (f0_2 x18 x28))) (?v_24 (f0_1 x2)) (?v_75 (f0_1 x12))) (let ((?v_13 (distinct ?v_24 ?v_75)) (?v_20 (f0_1 x6))) (let ((?v_11 (= (f0_1 x27) ?v_20)) (?v_22 (distinct x21 (f0_2 x25 x9))) (?v_66 (f0_1 x15))) (let ((?v_93 (= x21 ?v_66)) (?v_117 (= x1 ?v_24)) (?v_16 (= (f0_1 x22) (f0_2 x13 x2))) (?v_1 (f0_1 x25))) (let ((?v_31 (distinct ?v_1 (f0_2 x10 x28))) (?v_80 (= x26 (f0_1 x3))) (?v_126 (distinct (f0_2 x19 x3) x16)) (?v_74 (f0_1 x14))) (let ((?v_92 (distinct ?v_74 ?v_75)) (?v_4 (distinct x23 (f0_2 x13 x20))) (?v_32 (f0_1 x1))) (let ((?v_29 (distinct ?v_74 ?v_32)) (?v_42 (= x12 x4)) (?v_59 (= ?v_20 (f0_2 x16 x27))) (?v_2 (= x9 x15)) (?v_149 (= (f0_1 x13) ?v_32)) (?v_60 (= (f0_1 x19) x11)) (?v_19 (= x25 (f0_2 x22 x5))) (?v_23 (distinct x17 ?v_1)) (?v_119 (distinct (f0_2 x10 x26) x16)) (?v_91 (= ?v_66 x8)) (?v_120 (distinct (f0_2 x15 x26) ?v_1)) (?v_108 (distinct (f0_2 x14 x29) (f0_2 x7 x9))) (?v_128 (distinct ?v_20 x4)) (?v_101 (= x9 ?v_20)) (?v_121 (= (f0_2 x20 x3) ?v_1))) (let ((?v_6 (not ?v_23)) (?v_17 (not P11)) (?v_159 (not ?v_2)) (?v_55 (not P10)) (?v_65 (not ?v_0)) (?v_3 (not ?v_91)) (?v_150 (not P26)) (?v_30 (not P5)) (?v_54 (not ?v_105)) (?v_5 (not ?v_4)) (?v_33 (not P12)) (?v_8 (not P8)) (?v_139 (not ?v_29)) (?v_27 (not P6)) (?v_148 (not P19)) (?v_88 (not ?v_19)) (?v_77 (not P18)) (?v_70 (not ?v_9)) (?v_12 (not P28)) (?v_47 (not ?v_11)) (?v_46 (not ?v_13)) (?v_18 (not P21)) (?v_67 (not ?v_42)) (?v_104 (not ?v_16)) (?v_151 (not P14)) (?v_68 (not ?v_59)) (?v_103 (not P17)) (?v_25 (not P27)) (?v_39 (not ?v_22)) (?v_131 (not ?v_117)) (?v_98 (not ?v_120)) (?v_50 (not ?v_60)) (?v_56 (not ?v_80)) (?v_78 (not ?v_149)) (?v_96 (not P23)) (?v_122 (not P16)) (?v_86 (not P2)) (?v_113 (not P1)) (?v_97 (not P22)) (?v_114 (not ?v_101)) (?v_73 (not ?v_72)) (?v_87 (not P13)) (?v_124 (not ?v_40)) (?v_115 (not ?v_141)) (?v_94 (not P20)) (?v_125 (not ?v_93)) (?v_95 (not P24)) (?v_158 (not P4)) (?v_130 (not P7)) (?v_102 (not P3)) (?v_137 (not ?v_31)) (?v_112 (not ?v_108)) (?v_140 (not P29)) (?v_127 (not P0)) (?v_153 (not ?v_128)) (?v_138 (not ?v_121)) (?v_147 (not ?v_126))) (let ((?v_142 (or ?v_6 ?v_27)) (?v_133 (not ?v_92)) (?v_145 (not P9)) (?v_157 (not P25)) (?v_156 (not ?v_119)) (?v_99 (<= (- (+ (* 4 x3) x4) x21) 19))) (let ((?v_62 (not ?v_99)) (?v_45 (<= (- (+ ?v_14 (* 33 x27)) (* 9 x11)) (- 42))) (?v_107 (<= (+ (- (* 42 x0) (* 11 x6)) (* 25 x6)) (- 6))) (?v_10 (<= (- (- (* (- 9) x6) (* 41 x21)) (* 4 x19)) (- 15))) (?v_116 (<= (- (+ (* (- 3) x6) (* 7 x9)) (* 8 x23)) 23)) (?v_64 (< (+ (* (- 3) x29) (* 16 x27) (* 33 x12)) 21)) (?v_7 (distinct (- (- (* (- 33) x23) 0) (* 27 x8)) (- 22)))) (let ((?v_41 (not ?v_7)) (?v_21 (not ?v_10)) (?v_57 (distinct (+ (- (* (- 31) x1) (* 38 x18)) (* 7 x22)) (- 38)))) (let ((?v_106 (not ?v_57)) (?v_28 (< (+ (* (- 26) x2) ?v_14 (* 21 x24)) (- 1)))) (let ((?v_15 (not ?v_28)) (?v_44 (<= (+ ?v_34 (* 11 x9) (* 25 x18)) (- 9)))) (let ((?v_35 (not ?v_44)) (?v_36 (<= (+ (* (- 13) x19) (* 42 x7) (* 40 x6)) 36)) (?v_26 (< (- (+ (* (- 15) x10) (* 30 x8)) (* 23 x8)) 8))) (let ((?v_61 (not ?v_26)) (?v_89 (< (- (- (* (- 26) x27) (* 24 x13)) (* 16 x13)) (- 34)))) (let ((?v_82 (not ?v_89)) (?v_51 (< (- (- (* (- 23) x15) (* 21 x27)) (* 38 x23)) (- 18)))) (let ((?v_109 (not ?v_51)) (?v_49 (<= (- (+ (* 28 x21) (* 22 x8)) 0) (- 44))) (?v_71 (< (+ (* (- 30) x19) x13 (* 15 x3)) (- 35)))) (let ((?v_38 (not ?v_71)) (?v_100 (<= (+ (- (* (- 35) x14) (* 12 x24)) (* 34 x20)) (- 42)))) (let ((?v_53 (not ?v_100)) (?v_85 (< (+ (* (- 15) x3) (* 17 x22) x8) (- 29))) (?v_37 (<= (- (+ (* 30 x14) (* 12 x1)) (* 37 x4)) (- 36))) (?v_111 (<= (- (- (* 16 x12) ?v_34) (* 37 x12)) (- 44)))) (let ((?v_43 (not ?v_111)) (?v_155 (not ?v_37)) (?v_135 (<= (- (- (* 38 x4) (* 3 x24)) (* 18 x23)) (- 41)))) (let ((?v_132 (not ?v_135)) (?v_58 (< (+ (- (* (- 6) x7) (* 27 x4)) (* 26 x13)) (- 33)))) (let ((?v_154 (not ?v_58)) (?v_83 (distinct (- (+ (* 13 x19) (* 5 x18)) (* 4 x26)) (- 30)))) (let ((?v_69 (not ?v_83)) (?v_79 (<= (+ (- (* (- 20) x21) (* 20 x5)) (* 19 x19)) (- 22)))) (let ((?v_52 (not ?v_79)) (?v_152 (not ?v_45)) (?v_63 (<= (+ (* (- 35) x11) (* 5 x2) (* 12 x11)) 21)) (?v_48 (not ?v_36)) (?v_81 (< (+ (* (- 7) x20) (* 21 x14) (* 3 x20)) (- 4)))) (let ((?v_76 (not ?v_63)) (?v_129 (< (- (+ (* (- 27) x15) (* 29 x17)) (* 16 x24)) 26))) (let ((?v_84 (or ?v_129 ?v_5)) (?v_134 (not ?v_81)) (?v_144 (not ?v_85)) (?v_90 (not ?v_49)) (?v_123 (< (- (- (* 35 x0) (* 22 x21)) (* 35 x16)) (- 38)))) (let ((?v_118 (not ?v_123)) (?v_110 (not ?v_107)) (?v_146 (not ?v_64)) (?v_136 (not ?v_129)) (?v_143 (not ?v_116))) (and (and (and (and (and (and (and (and (and (and (and (and (and (and (and (and (and (and (and (and (and (and (and (and (and (and (and (and (and (and (and (and (and (and (and (and (and (and (and (and (and (and (and (and (and (and (and (and (and (and (and (and (and (and (and (and (and (and (and (and (and (and (and (and (and (and (and (and (and (and (and (and (and (and (and (and (and (and (and (and (and (and (and (and (and (and (and (and (and (and (and (and (and (and (and (and (and (and (and (and (and (and (and (and (and (and (and (and (and (and (and (and (and (and (and (and (and (and (and (and (and (and (and (and (and (and (and (and (and (and (and (and (and (and (and (and (and (and (and (and (and (and (and (and (and (and (and (and (and (and (and (and (and (and (and (and (and (and (and (and (and (and (and (and (and (and (and (and (and (and (and (and (and (and (and (and (and (and (and (and (and (and (and (and (and (and (and (and (and (and (and (and (and (and (and (and (and (and (and (and (and (and (and (and (and (and (and (and (and (and (and (and (and (and (and (and (and (and (and (and (and (and (and (and (and (and (and (and (and (and (and (and (and (and (and (and (and (and (and (and (and (and (and (and (and (and (and (and (and (and (and (and (and (and (and (and (and (and (and (and (and (and (and (and (and (and (and (and (and (and (and (and (and (and (and (and (and (and (and (and (and (and (and (and (and (and (and (and (and (and (and (and (and (and (and (and (and (and (and (and (and (and (and (and (and (and (and (and (and (and (and (and (and (and (and (and (and (and (and (and (and (and (and (and (and (and (and (and (and (and (and (and (and (and (and (and (and (and (and (and (and (and (and (and (and (and (and (and (and (and (and (and (and (and (and (and (and (and (and (or (or ?v_45 ?v_6) P21) (or (or ?v_107 ?v_17) ?v_0)) (or (or ?v_11 ?v_159) ?v_55)) (or (or ?v_10 ?v_65) ?v_3)) (or (or ?v_4 ?v_31) P23)) (or (or ?v_150 ?v_22) ?v_30)) (or (or P24 ?v_2) ?v_3)) (or (or ?v_54 P25) ?v_5)) (or (or ?v_5 P11) ?v_33)) (or (or P24 ?v_8) ?v_40)) (or (or ?v_6 ?v_139) ?v_116)) (or (or ?v_27 ?v_64) ?v_148)) (or (or ?v_88 P28) ?v_41)) (or (or P2 ?v_77) ?v_16)) (or (or ?v_70 ?v_12) ?v_7)) (or (or ?v_8 ?v_9) ?v_21)) (or (or ?v_13 ?v_47) ?v_12)) (or (or P19 ?v_46) ?v_18)) (or (or ?v_106 ?v_15) ?v_67)) (or (or P7 P23) ?v_15)) (or (or ?v_104 ?v_17) ?v_35)) (or (or ?v_151 P22) ?v_18)) (or (or P7 ?v_19) ?v_36)) (or (or P0 ?v_61) ?v_82)) (or (or ?v_68 ?v_103) P2)) (or (or ?v_25 ?v_21) ?v_39)) (or (or ?v_23 P21) P23)) (or (or ?v_109 ?v_131) P5)) (or (or ?v_25 ?v_2) ?v_26)) (or (or ?v_27 ?v_28) ?v_49)) (or (or ?v_38 ?v_53) ?v_85)) (or (or ?v_29 ?v_7) ?v_98)) (or (or ?v_50 ?v_37) ?v_30)) (or (or ?v_56 ?v_31) ?v_10)) (or (or P4 ?v_78) ?v_33)) (or (or P7 ?v_43) P12)) (or (or P26 ?v_35) P29)) (or (or P13 ?v_36) ?v_37)) (or (or ?v_38 ?v_155) ?v_0)) (or (or ?v_132 ?v_39) P11)) (or (or ?v_154 ?v_40) P8)) (or (or ?v_69 ?v_96) ?v_41)) (or (or P29 ?v_122) ?v_52)) (or (or P8 ?v_42) ?v_43)) (or (or ?v_72 ?v_44) ?v_152)) (or (or ?v_36 ?v_63) ?v_46)) (or (or ?v_48 ?v_47) ?v_9)) (or (or ?v_48 ?v_49) ?v_86)) (or (or ?v_50 ?v_51) ?v_52)) (or (or ?v_81 ?v_53) ?v_49)) (or (or ?v_54 ?v_113) ?v_55)) (or (or ?v_56 ?v_97) P16)) (or (or ?v_28 ?v_57) P7)) (or (or ?v_35 ?v_58) ?v_62)) (or (or ?v_59 ?v_60) P17)) (or (or ?v_60 P21) ?v_9)) (or (or ?v_61 ?v_47) ?v_35)) (or (or P7 ?v_62) ?v_76)) (or (or ?v_114 ?v_64) P28)) (or (or ?v_65 ?v_31) ?v_49)) (or (or ?v_93 ?v_10) P6)) (or (or ?v_30 ?v_67) ?v_62)) (or ?v_84 ?v_68)) (or (or ?v_64 ?v_50) ?v_68)) (or (or P5 ?v_11) ?v_69)) (or (or ?v_54 ?v_70) ?v_29)) (or (or ?v_15 ?v_71) ?v_73)) (or (or ?v_65 ?v_44) ?v_73)) (or (or ?v_92 ?v_6) ?v_76)) (or (or ?v_48 P25) ?v_4)) (or (or ?v_2 ?v_56) ?v_77)) (or (or ?v_69 ?v_78) ?v_19)) (or (or ?v_79 ?v_80) ?v_134)) (or (or P2 P6) ?v_87)) (or (or P10 ?v_21) ?v_50)) (or (or ?v_53 ?v_82) ?v_83)) (or ?v_84 ?v_144)) (or (or ?v_85 ?v_86) ?v_124)) (or (or ?v_86 ?v_83) ?v_87)) (or (or ?v_49 ?v_35) P2)) (or (or ?v_119 P27) ?v_35)) (or (or ?v_88 ?v_90) ?v_89)) (or (or ?v_44 P28) ?v_108)) (or (or ?v_115 ?v_90) ?v_63)) (or (or ?v_91 P6) ?v_15)) (or (or ?v_90 ?v_92) P22)) (or (or ?v_94 ?v_125) ?v_95)) (or (or ?v_94 ?v_13) ?v_95)) (or (or ?v_8 ?v_68) ?v_96)) (or (or ?v_158 ?v_97) P21)) (or (or P1 ?v_65) ?v_42)) (or (or ?v_88 P6) ?v_98)) (or (or ?v_42 P6) ?v_99)) (or (or ?v_100 ?v_93) ?v_130)) (or (or ?v_102 ?v_36) ?v_37)) (or (or ?v_118 ?v_101) ?v_102)) (or (or ?v_4 ?v_2) ?v_103)) (or (or ?v_59 ?v_33) ?v_104)) (or (or ?v_27 ?v_137) P4)) (or (or ?v_105 ?v_106) ?v_92)) (or (or ?v_70 P15) ?v_88)) (or (or ?v_110 ?v_90) ?v_112)) (or (or ?v_8 ?v_140) ?v_109)) (or (or ?v_6 ?v_69) ?v_19)) (or (or ?v_103 ?v_9) ?v_58)) (or (or P23 P6) ?v_48)) (or (or ?v_88 ?v_71) ?v_22)) (or (or ?v_52 ?v_16) ?v_8)) (or (or ?v_110 ?v_28) ?v_65)) (or (or ?v_111 ?v_98) ?v_112)) (or (or ?v_27 ?v_113) ?v_127)) (or (or ?v_114 ?v_41) ?v_96)) (or (or P2 P17) ?v_54)) (or (or ?v_126 ?v_54) P27)) (or (or ?v_46 ?v_45) ?v_153)) (or (or ?v_115 ?v_116) ?v_50)) (or (or ?v_78 P2) ?v_88)) (or (or ?v_9 ?v_94) ?v_101)) (or (or ?v_117 ?v_23) ?v_83)) (or (or ?v_80 P7) ?v_57)) (or (or ?v_113 ?v_102) P19)) (or (or ?v_13 ?v_113) ?v_110)) (or (or ?v_138 ?v_33) ?v_86)) (or (or ?v_61 ?v_16) ?v_91)) (or (or ?v_112 ?v_0) ?v_88)) (or (or ?v_112 ?v_118) ?v_59)) (or (or ?v_119 ?v_93) P4)) (or (or ?v_98 P8) ?v_115)) (or (or ?v_63 ?v_13) ?v_90)) (or (or ?v_120 ?v_17) P12)) (or (or ?v_105 ?v_8) ?v_63)) (or (or ?v_22 ?v_116) ?v_31)) (or (or ?v_30 ?v_21) ?v_41)) (or (or ?v_58 ?v_31) ?v_113)) (or (or ?v_121 P1) ?v_95)) (or (or ?v_122 ?v_59) ?v_123)) (or (or P21 ?v_60) ?v_124)) (or (or ?v_45 ?v_80) ?v_19)) (or (or ?v_106 ?v_146) P12)) (or (or ?v_9 ?v_81) P6)) (or (or ?v_73 ?v_125) ?v_147)) (or ?v_142 P2)) (or (or ?v_122 ?v_7) ?v_109)) (or (or ?v_33 ?v_87) P1)) (or (or P17 ?v_119) ?v_127)) (or (or ?v_65 ?v_17) ?v_104)) (or (or ?v_108 ?v_44) ?v_86)) (or (or ?v_108 ?v_92) ?v_29)) (or (or ?v_128 P18) ?v_62)) (or (or ?v_61 ?v_103) P18)) (or (or ?v_118 P1) P16)) (or (or ?v_13 ?v_37) ?v_128)) (or (or ?v_133 ?v_65) ?v_54)) (or (or ?v_5 ?v_102) ?v_118)) (or (or ?v_105 ?v_12) ?v_97)) (or (or ?v_86 ?v_54) ?v_99)) (or (or ?v_30 ?v_129) P2)) (or (or ?v_68 ?v_102) ?v_113)) (or (or P6 ?v_55) ?v_15)) (or (or ?v_130 P9) ?v_22)) (or (or ?v_86 ?v_136) ?v_101)) (or (or P11 ?v_22) ?v_117)) (or (or ?v_60 ?v_98) ?v_13)) (or (or ?v_27 ?v_100) ?v_80)) (or (or ?v_131 ?v_3) P23)) (or (or ?v_132 ?v_110) ?v_81)) (or (or P28 P21) ?v_28)) (or (or ?v_129 P20) ?v_127)) (or (or ?v_18 ?v_73) ?v_27)) (or (or ?v_61 ?v_132) ?v_47)) (or (or ?v_133 P6) ?v_91)) (or (or P21 P17) ?v_90)) (or (or ?v_134 ?v_108) ?v_106)) (or (or P11 P21) ?v_145)) (or (or ?v_33 ?v_40) ?v_135)) (or (or P5 ?v_116) ?v_92)) (or (or ?v_52 ?v_101) ?v_136)) (or (or ?v_26 P2) ?v_137)) (or (or ?v_31 ?v_80) ?v_115)) (or (or ?v_104 ?v_15) ?v_97)) (or (or P9 ?v_124) ?v_3)) (or (or ?v_123 P15) ?v_71)) (or (or ?v_138 ?v_123) ?v_108)) (or (or ?v_128 ?v_7) P11)) (or (or ?v_65 P27) ?v_71)) (or (or ?v_101 ?v_62) ?v_51)) (or (or ?v_91 ?v_57) ?v_133)) (or (or P0 ?v_104) ?v_123)) (or (or ?v_62 ?v_96) ?v_86)) (or (or ?v_0 P16) ?v_120)) (or (or ?v_82 ?v_136) P0)) (or (or ?v_18 ?v_10) ?v_113)) (or (or ?v_139 ?v_133) P17)) (or (or ?v_143 ?v_0) ?v_87)) (or (or P26 P8) ?v_112)) (or (or ?v_21 ?v_83) ?v_16)) (or (or ?v_103 ?v_42) P8)) (or (or ?v_97 ?v_140) ?v_2)) (or (or ?v_89 ?v_55) ?v_104)) (or (or ?v_45 ?v_114) ?v_54)) (or (or ?v_18 ?v_85) ?v_101)) (or (or ?v_141 ?v_91) ?v_105)) (or (or ?v_116 ?v_108) ?v_63)) (or ?v_142 ?v_50)) (or (or ?v_143 ?v_144) ?v_42)) (or (or ?v_81 ?v_144) ?v_119)) (or (or ?v_83 ?v_15) ?v_4)) (or (or ?v_91 ?v_73) ?v_112)) (or (or ?v_79 ?v_87) P7)) (or (or ?v_62 ?v_87) ?v_48)) (or (or ?v_136 ?v_65) ?v_27)) (or (or ?v_27 ?v_43) P23)) (or (or ?v_112 ?v_145) P8)) (or (or ?v_102 ?v_157) ?v_131)) (or (or ?v_108 ?v_133) ?v_0)) (or (or ?v_79 ?v_38) ?v_73)) (or (or ?v_125 ?v_79) ?v_85)) (or (or P24 ?v_87) ?v_31)) (or (or ?v_137 P21) ?v_146)) (or (or ?v_51 ?v_0) ?v_92)) (or (or P13 ?v_138) ?v_147)) (or (or ?v_8 ?v_148) ?v_38)) (or (or ?v_78 ?v_43) P3)) (or (or ?v_100 ?v_83) ?v_11)) (or (or ?v_135 ?v_87) ?v_156)) (or (or ?v_127 ?v_82) ?v_115)) (or (or P12 ?v_46) ?v_4)) (or (or ?v_110 P14) ?v_50)) (or (or ?v_98 ?v_149) P3)) (or (or ?v_87 ?v_33) ?v_37)) (or (or ?v_150 ?v_117) ?v_78)) (or (or P11 ?v_80) P22)) (or (or ?v_103 ?v_87) ?v_105)) (or (or ?v_151 P27) ?v_87)) (or (or ?v_106 P16) ?v_70)) (or (or ?v_62 P5) ?v_133)) (or (or ?v_99 ?v_136) ?v_113)) (or (or ?v_116 ?v_9) ?v_39)) (or (or ?v_52 ?v_129) ?v_90)) (or (or ?v_97 ?v_93) ?v_151)) (or (or P14 ?v_0) ?v_27)) (or (or ?v_58 ?v_131) ?v_18)) (or (or ?v_82 ?v_19) ?v_2)) (or (or ?v_152 P7) ?v_6)) (or (or P15 P3) P22)) (or (or ?v_36 ?v_136) ?v_55)) (or (or ?v_16 P16) ?v_17)) (or (or ?v_79 P10) ?v_37)) (or (or ?v_67 ?v_64) ?v_136)) (or (or ?v_30 P20) ?v_112)) (or (or ?v_7 ?v_45) ?v_9)) (or (or P28 ?v_135) ?v_39)) (or (or ?v_18 P20) ?v_26)) (or (or ?v_115 ?v_51) ?v_61)) (or (or ?v_26 ?v_28) ?v_102)) (or (or ?v_153 ?v_44) ?v_11)) (or (or ?v_112 ?v_85) ?v_129)) (or (or ?v_16 ?v_87) ?v_0)) (or (or ?v_33 ?v_110) ?v_154)) (or (or ?v_153 ?v_130) ?v_63)) (or (or ?v_123 ?v_88) ?v_47)) (or (or ?v_69 P17) ?v_128)) (or (or ?v_62 ?v_153) ?v_80)) (or (or ?v_141 ?v_99) ?v_18)) (or (or ?v_78 ?v_50) ?v_118)) (or (or ?v_36 ?v_61) P14)) (or (or P6 ?v_11) ?v_63)) (or (or ?v_33 ?v_53) ?v_106)) (or (or P17 ?v_48) ?v_18)) (or (or ?v_151 ?v_72) ?v_108)) (or (or ?v_154 ?v_11) ?v_155)) (or (or ?v_105 P15) ?v_114)) (or (or ?v_21 ?v_124) ?v_59)) (or (or ?v_132 ?v_52) ?v_46)) (or (or ?v_45 ?v_30) ?v_112)) (or (or P17 ?v_128) ?v_9)) (or (or ?v_96 ?v_149) ?v_4)) (or (or ?v_156 ?v_45) ?v_100)) (or (or ?v_44 ?v_152) ?v_9)) (or (or ?v_57 ?v_68) ?v_77)) (or (or ?v_86 ?v_67) P20)) (or (or ?v_15 ?v_120) ?v_117)) (or (or ?v_28 ?v_97) P7)) (or (or P23 ?v_115) ?v_90)) (or (or ?v_151 ?v_141) ?v_96)) (or (or P28 ?v_23) ?v_52)) (or (or ?v_90 ?v_70) ?v_130)) (or (or ?v_76 ?v_87) ?v_58)) (or (or ?v_2 ?v_37) ?v_81)) (or (or ?v_25 ?v_135) ?v_136)) (or (or ?v_55 ?v_25) ?v_131)) (or (or ?v_141 ?v_9) ?v_107)) (or (or ?v_116 ?v_129) ?v_150)) (or (or ?v_47 P3) ?v_60)) (or (or ?v_157 ?v_136) P10)) (or (or P15 ?v_102) ?v_122)) (or (or ?v_103 ?v_105) ?v_30)) (or (or ?v_15 ?v_130) ?v_127)) (or (or ?v_67 ?v_150) ?v_43)) (or (or ?v_33 ?v_131) ?v_140)) (or (or P1 ?v_92) ?v_13)) (or (or ?v_35 ?v_128) ?v_125)) (or (or P13 ?v_33) ?v_86)) (or (or ?v_114 ?v_148) P18)) (or (or ?v_50 ?v_89) ?v_49)) (or (or ?v_4 ?v_0) ?v_100)) (or (or ?v_114 ?v_126) ?v_19)) (or (or ?v_96 ?v_51) P1)) (or (or ?v_36 P8) ?v_158)) (or (or ?v_36 ?v_116) P4)) (or (or ?v_18 ?v_4) ?v_159)) (or (or ?v_153 ?v_62) ?v_44)) (or (or ?v_80 ?v_56) P25)) (or (or ?v_6 ?v_67) ?v_112)) (or (or ?v_23 P26) ?v_145)) (or (or ?v_141 ?v_62) P24)) (or (or ?v_25 ?v_5) ?v_105)) (or (or ?v_47 ?v_53) P20)) (or (or P26 ?v_122) P18)) (or (or ?v_139 ?v_137) P9)) (or (or ?v_42 ?v_17) ?v_49)) (or (or P13 P19) ?v_144)) (or (or ?v_43 ?v_37) ?v_154)) (or (or ?v_37 ?v_52) ?v_55)) (or (or ?v_9 ?v_7) ?v_16)) (or (or ?v_33 ?v_48) ?v_100)) (or (or ?v_23 ?v_139) P2)) (or (or ?v_71 ?v_42) ?v_49)) (or (or ?v_57 ?v_60) P2)) (or (or ?v_109 ?v_45) ?v_91)) (or (or ?v_132 ?v_65) ?v_122)) (or (or ?v_117 ?v_144) ?v_62)) (or (or ?v_113 ?v_157) ?v_149)) (or (or ?v_93 ?v_87) ?v_43)) (or (or P13 ?v_128) ?v_130)) (or (or ?v_158 ?v_80) P5)) (or (or ?v_6 P9) ?v_64)) (or (or ?v_8 ?v_153) P5)) (or (or ?v_103 ?v_128) ?v_117)) (or (or ?v_114 ?v_81) ?v_102)) (or (or ?v_52 ?v_40) ?v_67)) (or (or ?v_73 ?v_47) ?v_119)) (or (or ?v_99 ?v_157) ?v_46)) (or (or ?v_42 P7) P6)) (or (or ?v_54 ?v_63) ?v_52)) (or (or ?v_133 ?v_98) P24)) (or (or ?v_21 ?v_21) ?v_18)) (or (or ?v_141 ?v_139) ?v_57)) (or (or ?v_127 ?v_107) ?v_109)) (or (or ?v_120 ?v_109) ?v_25)) (or (or ?v_5 ?v_116) ?v_80)) (or (or ?v_3 ?v_9) ?v_63)) (or (or ?v_11 ?v_156) ?v_54)) (or (or P25 ?v_107) ?v_17)) (or (or ?v_97 ?v_103) ?v_132)) (or (or ?v_30 ?v_61) ?v_57)) (or (or ?v_145 ?v_156) ?v_155)) (or (or ?v_18 ?v_47) ?v_57)) (or (or ?v_152 P29) ?v_146)) (or (or ?v_35 ?v_12) ?v_144))))))))))))))))))))))))))))))
(check-sat)
(exit)
